data/mip_solutions/furman_sahinidis/reduced_transportation/7sp2_cplex.sol
Elapsed time: 0.0389108657837
Nodes explored: 40
Upper bound: 7.0
Lower bound: 7.0
y[0,1]=1
y[0,2]=1
y[0,3]=1
y[1,0]=1
y[1,3]=1
y[2,1]=1
y[3,0]=1
q[0,0,1,3]=224.4
q[0,0,2,3]=1129.92
q[0,1,2,3]=1473.12
q[0,2,2,3]=498.96
q[0,3,2,3]=1026.0
q[0,3,3,5]=162.0
q[1,2,0,3]=331.17
q[1,3,0,3]=693.3
q[1,3,3,4]=522.2
q[1,3,3,5]=992.3
q[1,4,3,4]=1577.0
q[1,5,3,5]=157.7
q[2,1,1,3]=18.4
q[2,1,1,5]=800.0
q[2,2,1,3]=277.2
q[2,3,1,3]=1560.0
q[2,3,1,4]=288.0
q[2,4,1,4]=1312.0
q[2,4,1,6]=8.0
q[2,5,1,6]=660.0
q[2,6,1,6]=132.0
q[3,3,0,3]=575.53
q[3,3,0,4]=1600.0
